benchmark/results/graph__15-1000-0.10-03_7/graph__15-1000-0.10-03_7_Quinton_Benders_primal_sub.lp
\ This file has been generated by DOcplex
\ ENCODING=ISO-8859-1
\Problem name: Quinton Benders_primal_sub

Maximize
 obj: tau
Subject To
 c1: tau <= 0.001123595506
 c2: y_a0_proc_0 + y_a0_proc_1 + y_a0_proc_2 - tau = 0
 c3: y_a0_proc_0 <= 0
 c4: y_a0_proc_1 <= 1
 c5: y_a0_proc_2 <= 0
 c6: tau <= 0.001008064516
 c7: y_a1_proc_1 - tau = 0
 c8: y_a1_proc_1 <= 1
 c9: tau <= 0.001158748552
 c10: y_a2_proc_0 + y_a2_proc_1 - tau = 0
 c11: y_a2_proc_0 <= 1
 c12: y_a2_proc_1 <= 0
 c13: tau <= 0.001464128843
 c14: y_a3_proc_0 + y_a3_proc_1 + y_a3_proc_2 - tau = 0
 c15: y_a3_proc_0 <= 1
 c16: y_a3_proc_1 <= 0
 c17: y_a3_proc_2 <= 0
 c18: tau <= 0.001066098081
 c19: y_a4_proc_0 + y_a4_proc_1 + y_a4_proc_2 - tau = 0
 c20: y_a4_proc_0 <= 1
 c21: y_a4_proc_1 <= 0
 c22: y_a4_proc_2 <= 0
 c23: tau <= 0.001104972376
 c24: y_a5_proc_0 + y_a5_proc_1 - tau = 0
 c25: y_a5_proc_0 <= 0
 c26: y_a5_proc_1 <= 1
 c27: tau <= 0.002252252252
 c28: y_a6_proc_1 + y_a6_proc_2 - tau = 0
 c29: y_a6_proc_1 <= 0
 c30: y_a6_proc_2 <= 1
 c31: tau <= 0.001089324619
 c32: y_a7_proc_0 + y_a7_proc_1 + y_a7_proc_2 - tau = 0
 c33: y_a7_proc_0 <= 1
 c34: y_a7_proc_1 <= 0
 c35: y_a7_proc_2 <= 0
 c36: tau <= 0.002079002079
 c37: y_a8_proc_0 + y_a8_proc_1 + y_a8_proc_2 - tau = 0
 c38: y_a8_proc_0 <= 0
 c39: y_a8_proc_1 <= 0
 c40: y_a8_proc_2 <= 1
 c41: tau <= 0.000932835821
 c42: y_a9_proc_2 - tau = 0
 c43: y_a9_proc_2 <= 1
 c44: tau <= 0.000881834215
 c45: y_a10_proc_1 - tau = 0
 c46: y_a10_proc_1 <= 1
 c47: tau <= 0.001050420168
 c48: y_a11_proc_1 - tau = 0
 c49: y_a11_proc_1 <= 1
 c50: tau <= 0.001386962552
 c51: y_a12_proc_0 + y_a12_proc_1 + y_a12_proc_2 - tau = 0
 c52: y_a12_proc_0 <= 0
 c53: y_a12_proc_1 <= 1
 c54: y_a12_proc_2 <= 0
 c55: tau <= 0.000853970965
 c56: y_a13_proc_0 + y_a13_proc_1 - tau = 0
 c57: y_a13_proc_0 <= 0
 c58: y_a13_proc_1 <= 1
 c59: tau <= 0.001519756839
 c60: y_a14_proc_0 + y_a14_proc_1 + y_a14_proc_2 - tau = 0
 c61: y_a14_proc_0 <= 0
 c62: y_a14_proc_1 <= 1
 c63: y_a14_proc_2 <= 0
 c64: u_a1 - u_a0 - 884 y_a0_proc_0 - 890 y_a0_proc_1 - 1007 y_a0_proc_2 >= 0
 c65: u_a0 - u_a2 - 863 y_a2_proc_0 - 1187 y_a2_proc_1 >= 0
 c66: u_a3 - u_a1 - 992 y_a1_proc_1 >= 0
 c67: u_a4 - u_a1 - 992 y_a1_proc_1 >= -1
 c68: u_a1 - u_a5 - 1266 y_a5_proc_0 - 905 y_a5_proc_1 >= 0
 c69: u_a6 - u_a5 - 1266 y_a5_proc_0 - 905 y_a5_proc_1 >= 0
 c70: u_a7 - u_a4 - 938 y_a4_proc_0 - 756 y_a4_proc_1 - 906 y_a4_proc_2 >= 0
 c71: u_a8 - u_a6 - 1227 y_a6_proc_1 - 444 y_a6_proc_2 >= 0
 c72: u_a9 - u_a3 - 683 y_a3_proc_0 - 478 y_a3_proc_1 - 919 y_a3_proc_2 >= 0
 c73: u_a10 - u_a8 - 623 y_a8_proc_0 - 976 y_a8_proc_1 - 481 y_a8_proc_2 >= 0
 c74: u_a5 - u_a11 - 952 y_a11_proc_1 >= 0
 c75: u_a12 - u_a6 - 1227 y_a6_proc_1 - 444 y_a6_proc_2 >= 0
 c76: u_a13 - u_a12 - 1098 y_a12_proc_0 - 721 y_a12_proc_1 - 1002 y_a12_proc_2
       >= 0
 c77: u_a11 - u_a14 - 1196 y_a14_proc_0 - 658 y_a14_proc_1 - 1266 y_a14_proc_2
       >= 0
 c78: u_a2 - u_a13 - 742 y_a13_proc_0 - 1171 y_a13_proc_1 >= 0
 c79: u_a11 - u_a12 - 1098 y_a12_proc_0 - 721 y_a12_proc_1 - 1002 y_a12_proc_2
       >= -1
 c80: u_a11 - u_a8 - 623 y_a8_proc_0 - 976 y_a8_proc_1 - 481 y_a8_proc_2 >= -1
 c81: u_a13 - u_a5 - 1266 y_a5_proc_0 - 905 y_a5_proc_1 >= 0
 c82: u_a0 - u_a13 - 742 y_a13_proc_0 - 1171 y_a13_proc_1 >= 0
 c83: u_a1 - u_a7 - 918 y_a7_proc_0 - 1256 y_a7_proc_1 - 692 y_a7_proc_2 >= 0
 c84: u_a8 - u_a12 - 1098 y_a12_proc_0 - 721 y_a12_proc_1 - 1002 y_a12_proc_2
       >= 0
 c85: u_a3 - u_a6 - 1227 y_a6_proc_1 - 444 y_a6_proc_2 >= 0
 c86: u_a14 - u_a10 - 1134 y_a10_proc_1 >= -1
 c87: u_a1 - u_a0 - 890 y_a0_proc_1 >= 0
 c88: u_a0 - u_a1 - 992 y_a1_proc_1 >= -1
 c89: u_a2 - u_a0 - 890 y_a0_proc_1 >= -2532
 c90: u_a2 - u_a0 - 884 y_a0_proc_0 >= -2532
 c91: u_a0 - u_a2 - 1187 y_a2_proc_1 >= -1
 c92: u_a0 - u_a2 - 863 y_a2_proc_0 >= -1
 c93: u_a3 - u_a0 - 890 y_a0_proc_1 >= -2531
 c94: u_a3 - u_a0 - 1007 y_a0_proc_2 >= -3797
 c95: u_a3 - u_a0 - 884 y_a0_proc_0 >= -2531
 c96: u_a0 - u_a3 - 478 y_a3_proc_1 >= -2
 c97: u_a0 - u_a3 - 919 y_a3_proc_2 >= -1268
 c98: u_a0 - u_a3 - 683 y_a3_proc_0 >= -2
 c99: u_a4 - u_a0 - 890 y_a0_proc_1 >= -2532
 c100: u_a4 - u_a0 - 1007 y_a0_proc_2 >= -3798
 c101: u_a4 - u_a0 - 884 y_a0_proc_0 >= -2532
 c102: u_a0 - u_a4 - 756 y_a4_proc_1 >= -1
 c103: u_a0 - u_a4 - 906 y_a4_proc_2 >= -1267
 c104: u_a0 - u_a4 - 938 y_a4_proc_0 >= -1
 c105: u_a5 - u_a0 - 890 y_a0_proc_1 >= -1268
 c106: u_a5 - u_a0 - 884 y_a0_proc_0 >= -3800
 c107: u_a0 - u_a5 - 905 y_a5_proc_1 >= 1267
 c108: u_a0 - u_a5 - 1266 y_a5_proc_0 >= -1265
 c109: u_a6 - u_a0 - 890 y_a0_proc_1 >= -3800
 c110: u_a6 - u_a0 - 1007 y_a0_proc_2 >= -3800
 c111: u_a0 - u_a6 - 1227 y_a6_proc_1 >= 1267
 c112: u_a0 - u_a6 - 444 y_a6_proc_2 >= 1267
 c113: u_a7 - u_a0 - 890 y_a0_proc_1 >= -2532
 c114: u_a7 - u_a0 - 1007 y_a0_proc_2 >= -3798
 c115: u_a7 - u_a0 - 884 y_a0_proc_0 >= -2532
 c116: u_a0 - u_a7 - 1256 y_a7_proc_1 >= -1
 c117: u_a0 - u_a7 - 692 y_a7_proc_2 >= -1267
 c118: u_a0 - u_a7 - 918 y_a7_proc_0 >= -1
 c119: u_a8 - u_a0 - 890 y_a0_proc_1 >= -3800
 c120: u_a8 - u_a0 - 1007 y_a0_proc_2 >= -3800
 c121: u_a8 - u_a0 - 884 y_a0_proc_0 >= -5066
 c122: u_a0 - u_a8 - 976 y_a8_proc_1 >= 1267
 c123: u_a0 - u_a8 - 481 y_a8_proc_2 >= 1267
 c124: u_a0 - u_a8 - 623 y_a8_proc_0 >= 1
 c125: u_a9 - u_a0 - 1007 y_a0_proc_2 >= 999998732
 c126: u_a0 - u_a9 - 1072 y_a9_proc_2 >= -1000001265
 c127: u_a10 - u_a0 - 890 y_a0_proc_1 >= -1267
 c128: u_a0 - u_a10 - 1134 y_a10_proc_1 >= 1266
 c129: u_a11 - u_a0 - 890 y_a0_proc_1 >= -1268
 c130: u_a0 - u_a11 - 952 y_a11_proc_1 >= 1267
 c131: u_a12 - u_a0 - 890 y_a0_proc_1 >= -1268
 c132: u_a12 - u_a0 - 1007 y_a0_proc_2 >= -3800
 c133: u_a12 - u_a0 - 884 y_a0_proc_0 >= -3800
 c134: u_a0 - u_a12 - 721 y_a12_proc_1 >= 1267
 c135: u_a0 - u_a12 - 1002 y_a12_proc_2 >= -1265
 c136: u_a0 - u_a12 - 1098 y_a12_proc_0 >= -1265
 c137: u_a13 - u_a0 - 890 y_a0_proc_1 >= -1268
 c138: u_a13 - u_a0 - 884 y_a0_proc_0 >= -3800
 c139: u_a0 - u_a13 - 1171 y_a13_proc_1 >= 1267
 c140: u_a0 - u_a13 - 742 y_a13_proc_0 >= -1265
 c141: u_a14 - u_a0 - 890 y_a0_proc_1 >= -1268
 c142: u_a14 - u_a0 - 1007 y_a0_proc_2 >= -3800
 c143: u_a14 - u_a0 - 884 y_a0_proc_0 >= -3800
 c144: u_a0 - u_a14 - 658 y_a14_proc_1 >= 1267
 c145: u_a0 - u_a14 - 1266 y_a14_proc_2 >= -1265
 c146: u_a0 - u_a14 - 1196 y_a14_proc_0 >= -1265
 c147: u_a2 - u_a1 - 992 y_a1_proc_1 >= -2533
 c148: u_a1 - u_a2 - 1187 y_a2_proc_1 >= 0
 c149: u_a3 - u_a1 - 992 y_a1_proc_1 >= -2532
 c150: u_a1 - u_a3 - 478 y_a3_proc_1 >= -1
 c151: u_a4 - u_a1 - 992 y_a1_proc_1 >= -2533
 c152: u_a1 - u_a4 - 756 y_a4_proc_1 >= 0
 c153: u_a5 - u_a1 - 992 y_a1_proc_1 >= -1268
 c154: u_a1 - u_a5 - 905 y_a5_proc_1 >= 1267
 c155: u_a6 - u_a1 - 992 y_a1_proc_1 >= -3800
 c156: u_a1 - u_a6 - 1227 y_a6_proc_1 >= 1267
 c157: u_a7 - u_a1 - 992 y_a1_proc_1 >= -2532
 c158: u_a1 - u_a7 - 1256 y_a7_proc_1 >= -1
 c159: u_a8 - u_a1 - 992 y_a1_proc_1 >= -3799
 c160: u_a1 - u_a8 - 976 y_a8_proc_1 >= 1266
 c161: u_a10 - u_a1 - 992 y_a1_proc_1 >= -1267
 c162: u_a1 - u_a10 - 1134 y_a10_proc_1 >= 1266
 c163: u_a11 - u_a1 - 992 y_a1_proc_1 >= -1268
 c164: u_a1 - u_a11 - 952 y_a11_proc_1 >= 1267
 c165: u_a12 - u_a1 - 992 y_a1_proc_1 >= -1268
 c166: u_a1 - u_a12 - 721 y_a12_proc_1 >= 1267
 c167: u_a13 - u_a1 - 992 y_a1_proc_1 >= -1268
 c168: u_a1 - u_a13 - 1171 y_a13_proc_1 >= 1267
 c169: u_a14 - u_a1 - 992 y_a1_proc_1 >= -1268
 c170: u_a1 - u_a14 - 658 y_a14_proc_1 >= 1267
 c171: u_a3 - u_a2 - 1187 y_a2_proc_1 >= -2532
 c172: u_a3 - u_a2 - 863 y_a2_proc_0 >= 0
 c173: u_a2 - u_a3 - 478 y_a3_proc_1 >= -2533
 c174: u_a2 - u_a3 - 683 y_a3_proc_0 >= -1
 c175: u_a4 - u_a2 - 1187 y_a2_proc_1 >= -2533
 c176: u_a4 - u_a2 - 863 y_a2_proc_0 >= -1
 c177: u_a2 - u_a4 - 756 y_a4_proc_1 >= -2532
 c178: u_a2 - u_a4 - 938 y_a4_proc_0 >= 0
 c179: u_a5 - u_a2 - 1187 y_a2_proc_1 >= -3800
 c180: u_a5 - u_a2 - 863 y_a2_proc_0 >= -3800
 c181: u_a2 - u_a5 - 905 y_a5_proc_1 >= 1267
 c182: u_a2 - u_a5 - 1266 y_a5_proc_0 >= 1267
 c183: u_a6 - u_a2 - 1187 y_a2_proc_1 >= -6331
 c184: u_a2 - u_a6 - 1227 y_a6_proc_1 >= 1266
 c185: u_a7 - u_a2 - 1187 y_a2_proc_1 >= -2532
 c186: u_a7 - u_a2 - 863 y_a2_proc_0 >= 0
 c187: u_a2 - u_a7 - 1256 y_a7_proc_1 >= -2533
 c188: u_a2 - u_a7 - 918 y_a7_proc_0 >= -1
 c189: u_a8 - u_a2 - 1187 y_a2_proc_1 >= -5065
 c190: u_a8 - u_a2 - 863 y_a2_proc_0 >= -3799
 c191: u_a2 - u_a8 - 976 y_a8_proc_1 >= 0
 c192: u_a2 - u_a8 - 623 y_a8_proc_0 >= 1266
 c193: u_a10 - u_a2 - 1187 y_a2_proc_1 >= -3799
 c194: u_a2 - u_a10 - 1134 y_a10_proc_1 >= 1266
 c195: u_a11 - u_a2 - 1187 y_a2_proc_1 >= -3800
 c196: u_a2 - u_a11 - 952 y_a11_proc_1 >= 1267
 c197: u_a12 - u_a2 - 1187 y_a2_proc_1 >= -3799
 c198: u_a12 - u_a2 - 863 y_a2_proc_0 >= -3799
 c199: u_a2 - u_a12 - 721 y_a12_proc_1 >= 1266
 c200: u_a2 - u_a12 - 1098 y_a12_proc_0 >= 1266
 c201: u_a13 - u_a2 - 1187 y_a2_proc_1 >= -3799
 c202: u_a13 - u_a2 - 863 y_a2_proc_0 >= -3799
 c203: u_a2 - u_a13 - 1171 y_a13_proc_1 >= 1266
 c204: u_a2 - u_a13 - 742 y_a13_proc_0 >= 1266
 c205: u_a14 - u_a2 - 1187 y_a2_proc_1 >= -3800
 c206: u_a14 - u_a2 - 863 y_a2_proc_0 >= -3800
 c207: u_a2 - u_a14 - 658 y_a14_proc_1 >= 1267
 c208: u_a2 - u_a14 - 1196 y_a14_proc_0 >= 1267
 c209: u_a4 - u_a3 - 478 y_a3_proc_1 >= -2533
 c210: u_a4 - u_a3 - 919 y_a3_proc_2 >= -2533
 c211: u_a4 - u_a3 - 683 y_a3_proc_0 >= -1
 c212: u_a3 - u_a4 - 756 y_a4_proc_1 >= -2532
 c213: u_a3 - u_a4 - 906 y_a4_proc_2 >= -2532
 c214: u_a3 - u_a4 - 938 y_a4_proc_0 >= 0
 c215: u_a5 - u_a3 - 478 y_a3_proc_1 >= -3800
 c216: u_a5 - u_a3 - 683 y_a3_proc_0 >= -3800
 c217: u_a3 - u_a5 - 905 y_a5_proc_1 >= 1267
 c218: u_a3 - u_a5 - 1266 y_a5_proc_0 >= 1267
 c219: u_a6 - u_a3 - 478 y_a3_proc_1 >= -5066
 c220: u_a6 - u_a3 - 919 y_a3_proc_2 >= -3800
 c221: u_a3 - u_a6 - 1227 y_a6_proc_1 >= 1
 c222: u_a3 - u_a6 - 444 y_a6_proc_2 >= 1267
 c223: u_a7 - u_a3 - 478 y_a3_proc_1 >= -2533
 c224: u_a7 - u_a3 - 919 y_a3_proc_2 >= -2533
 c225: u_a7 - u_a3 - 683 y_a3_proc_0 >= -1
 c226: u_a3 - u_a7 - 1256 y_a7_proc_1 >= -2532
 c227: u_a3 - u_a7 - 692 y_a7_proc_2 >= -2532
 c228: u_a3 - u_a7 - 918 y_a7_proc_0 >= 0
 c229: u_a8 - u_a3 - 478 y_a3_proc_1 >= -5065
 c230: u_a8 - u_a3 - 919 y_a3_proc_2 >= -3799
 c231: u_a8 - u_a3 - 683 y_a3_proc_0 >= -3799
 c232: u_a3 - u_a8 - 976 y_a8_proc_1 >= 0
 c233: u_a3 - u_a8 - 481 y_a8_proc_2 >= 1266
 c234: u_a3 - u_a8 - 623 y_a8_proc_0 >= 1266
 c235: u_a9 - u_a3 - 919 y_a3_proc_2 >= 999998732
 c236: u_a3 - u_a9 - 1072 y_a9_proc_2 >= -1000001265
 c237: u_a10 - u_a3 - 478 y_a3_proc_1 >= -3799
 c238: u_a3 - u_a10 - 1134 y_a10_proc_1 >= 1266
 c239: u_a11 - u_a3 - 478 y_a3_proc_1 >= -3800
 c240: u_a3 - u_a11 - 952 y_a11_proc_1 >= 1267
 c241: u_a12 - u_a3 - 478 y_a3_proc_1 >= -3800
 c242: u_a12 - u_a3 - 919 y_a3_proc_2 >= -5066
 c243: u_a12 - u_a3 - 683 y_a3_proc_0 >= -3800
 c244: u_a3 - u_a12 - 721 y_a12_proc_1 >= 1267
 c245: u_a3 - u_a12 - 1002 y_a12_proc_2 >= 1
 c246: u_a3 - u_a12 - 1098 y_a12_proc_0 >= 1267
 c247: u_a13 - u_a3 - 478 y_a3_proc_1 >= -3800
 c248: u_a13 - u_a3 - 683 y_a3_proc_0 >= -3800
 c249: u_a3 - u_a13 - 1171 y_a13_proc_1 >= 1267
 c250: u_a3 - u_a13 - 742 y_a13_proc_0 >= 1267
 c251: u_a14 - u_a3 - 478 y_a3_proc_1 >= -3800
 c252: u_a14 - u_a3 - 919 y_a3_proc_2 >= -5066
 c253: u_a14 - u_a3 - 683 y_a3_proc_0 >= -3800
 c254: u_a3 - u_a14 - 658 y_a14_proc_1 >= 1267
 c255: u_a3 - u_a14 - 1266 y_a14_proc_2 >= 1
 c256: u_a3 - u_a14 - 1196 y_a14_proc_0 >= 1267
 c257: u_a5 - u_a4 - 756 y_a4_proc_1 >= -3799
 c258: u_a5 - u_a4 - 938 y_a4_proc_0 >= -3799
 c259: u_a4 - u_a5 - 905 y_a5_proc_1 >= 1266
 c260: u_a4 - u_a5 - 1266 y_a5_proc_0 >= 1266
 c261: u_a6 - u_a4 - 756 y_a4_proc_1 >= -5065
 c262: u_a6 - u_a4 - 906 y_a4_proc_2 >= -3799
 c263: u_a4 - u_a6 - 1227 y_a6_proc_1 >= 0
 c264: u_a4 - u_a6 - 444 y_a6_proc_2 >= 1266
 c265: u_a7 - u_a4 - 756 y_a4_proc_1 >= -2532
 c266: u_a7 - u_a4 - 906 y_a4_proc_2 >= -2532
 c267: u_a7 - u_a4 - 938 y_a4_proc_0 >= 0
 c268: u_a4 - u_a7 - 1256 y_a7_proc_1 >= -2533
 c269: u_a4 - u_a7 - 692 y_a7_proc_2 >= -2533
 c270: u_a4 - u_a7 - 918 y_a7_proc_0 >= -1
 c271: u_a8 - u_a4 - 756 y_a4_proc_1 >= -5065
 c272: u_a8 - u_a4 - 906 y_a4_proc_2 >= -3799
 c273: u_a8 - u_a4 - 938 y_a4_proc_0 >= -3799
 c274: u_a4 - u_a8 - 976 y_a8_proc_1 >= 0
 c275: u_a4 - u_a8 - 481 y_a8_proc_2 >= 1266
 c276: u_a4 - u_a8 - 623 y_a8_proc_0 >= 1266
 c277: u_a9 - u_a4 - 906 y_a4_proc_2 >= 999998733
 c278: u_a4 - u_a9 - 1072 y_a9_proc_2 >= -1000001266
 c279: u_a10 - u_a4 - 756 y_a4_proc_1 >= -3799
 c280: u_a4 - u_a10 - 1134 y_a10_proc_1 >= 1266
 c281: u_a11 - u_a4 - 756 y_a4_proc_1 >= -3799
 c282: u_a4 - u_a11 - 952 y_a11_proc_1 >= 1266
 c283: u_a12 - u_a4 - 756 y_a4_proc_1 >= -3799
 c284: u_a12 - u_a4 - 906 y_a4_proc_2 >= -5065
 c285: u_a12 - u_a4 - 938 y_a4_proc_0 >= -3799
 c286: u_a4 - u_a12 - 721 y_a12_proc_1 >= 1266
 c287: u_a4 - u_a12 - 1002 y_a12_proc_2 >= 0
 c288: u_a4 - u_a12 - 1098 y_a12_proc_0 >= 1266
 c289: u_a13 - u_a4 - 756 y_a4_proc_1 >= -3799
 c290: u_a13 - u_a4 - 938 y_a4_proc_0 >= -3799
 c291: u_a4 - u_a13 - 1171 y_a13_proc_1 >= 1266
 c292: u_a4 - u_a13 - 742 y_a13_proc_0 >= 1266
 c293: u_a14 - u_a4 - 756 y_a4_proc_1 >= -3800
 c294: u_a14 - u_a4 - 906 y_a4_proc_2 >= -5066
 c295: u_a14 - u_a4 - 938 y_a4_proc_0 >= -3800
 c296: u_a4 - u_a14 - 658 y_a14_proc_1 >= 1267
 c297: u_a4 - u_a14 - 1266 y_a14_proc_2 >= 1
 c298: u_a4 - u_a14 - 1196 y_a14_proc_0 >= 1267
 c299: u_a6 - u_a5 - 905 y_a5_proc_1 >= -2532
 c300: u_a5 - u_a6 - 1227 y_a6_proc_1 >= -1
 c301: u_a7 - u_a5 - 905 y_a5_proc_1 >= -1265
 c302: u_a7 - u_a5 - 1266 y_a5_proc_0 >= -1265
 c303: u_a5 - u_a7 - 1256 y_a7_proc_1 >= -1268
 c304: u_a5 - u_a7 - 918 y_a7_proc_0 >= -1268
 c305: u_a8 - u_a5 - 905 y_a5_proc_1 >= -2532
 c306: u_a8 - u_a5 - 1266 y_a5_proc_0 >= -3798
 c307: u_a5 - u_a8 - 976 y_a8_proc_1 >= -1
 c308: u_a5 - u_a8 - 623 y_a8_proc_0 >= -1267
 c309: u_a10 - u_a5 - 905 y_a5_proc_1 >= 0
 c310: u_a5 - u_a10 - 1134 y_a10_proc_1 >= -1
 c311: u_a11 - u_a5 - 905 y_a5_proc_1 >= -1
 c312: u_a5 - u_a11 - 952 y_a11_proc_1 >= 0
 c313: u_a12 - u_a5 - 905 y_a5_proc_1 >= 0
 c314: u_a12 - u_a5 - 1266 y_a5_proc_0 >= -2532
 c315: u_a5 - u_a12 - 721 y_a12_proc_1 >= -1
 c316: u_a5 - u_a12 - 1098 y_a12_proc_0 >= -2533
 c317: u_a13 - u_a5 - 905 y_a5_proc_1 >= 0
 c318: u_a13 - u_a5 - 1266 y_a5_proc_0 >= -2532
 c319: u_a5 - u_a13 - 1171 y_a13_proc_1 >= -1
 c320: u_a5 - u_a13 - 742 y_a13_proc_0 >= -2533
 c321: u_a14 - u_a5 - 905 y_a5_proc_1 >= -1
 c322: u_a14 - u_a5 - 1266 y_a5_proc_0 >= -2533
 c323: u_a5 - u_a14 - 658 y_a14_proc_1 >= 0
 c324: u_a5 - u_a14 - 1196 y_a14_proc_0 >= -2532
 c325: u_a7 - u_a6 - 1227 y_a6_proc_1 >= 1
 c326: u_a7 - u_a6 - 444 y_a6_proc_2 >= 1267
 c327: u_a6 - u_a7 - 1256 y_a7_proc_1 >= -5066
 c328: u_a6 - u_a7 - 692 y_a7_proc_2 >= -3800
 c329: u_a8 - u_a6 - 1227 y_a6_proc_1 >= -2532
 c330: u_a8 - u_a6 - 444 y_a6_proc_2 >= 0
 c331: u_a6 - u_a8 - 976 y_a8_proc_1 >= -2533
 c332: u_a6 - u_a8 - 481 y_a8_proc_2 >= -1
 c333: u_a9 - u_a6 - 444 y_a6_proc_2 >= 999999999
 c334: u_a6 - u_a9 - 1072 y_a9_proc_2 >= -1000000000
 c335: u_a10 - u_a6 - 1227 y_a6_proc_1 >= -2532
 c336: u_a6 - u_a10 - 1134 y_a10_proc_1 >= -1
 c337: u_a11 - u_a6 - 1227 y_a6_proc_1 >= -2533
 c338: u_a6 - u_a11 - 952 y_a11_proc_1 >= 0
 c339: u_a12 - u_a6 - 1227 y_a6_proc_1 >= -2532
 c340: u_a12 - u_a6 - 444 y_a6_proc_2 >= -2532
 c341: u_a6 - u_a12 - 721 y_a12_proc_1 >= -1
 c342: u_a6 - u_a12 - 1002 y_a12_proc_2 >= -1
 c343: u_a13 - u_a6 - 1227 y_a6_proc_1 >= -2532
 c344: u_a6 - u_a13 - 1171 y_a13_proc_1 >= -1
 c345: u_a14 - u_a6 - 1227 y_a6_proc_1 >= -2533
 c346: u_a14 - u_a6 - 444 y_a6_proc_2 >= -2533
 c347: u_a6 - u_a14 - 658 y_a14_proc_1 >= 0
 c348: u_a6 - u_a14 - 1266 y_a14_proc_2 >= 0
 c349: u_a8 - u_a7 - 1256 y_a7_proc_1 >= -5066
 c350: u_a8 - u_a7 - 692 y_a7_proc_2 >= -3800
 c351: u_a8 - u_a7 - 918 y_a7_proc_0 >= -3800
 c352: u_a7 - u_a8 - 976 y_a8_proc_1 >= 1
 c353: u_a7 - u_a8 - 481 y_a8_proc_2 >= 1267
 c354: u_a7 - u_a8 - 623 y_a8_proc_0 >= 1267
 c355: u_a9 - u_a7 - 692 y_a7_proc_2 >= 999996200
 c356: u_a7 - u_a9 - 1072 y_a9_proc_2 >= -999998733
 c357: u_a10 - u_a7 - 1256 y_a7_proc_1 >= -1267
 c358: u_a7 - u_a10 - 1134 y_a10_proc_1 >= -1266
 c359: u_a11 - u_a7 - 1256 y_a7_proc_1 >= -3800
 c360: u_a7 - u_a11 - 952 y_a11_proc_1 >= 1267
 c361: u_a12 - u_a7 - 1256 y_a7_proc_1 >= -3800
 c362: u_a12 - u_a7 - 692 y_a7_proc_2 >= -5066
 c363: u_a12 - u_a7 - 918 y_a7_proc_0 >= -3800
 c364: u_a7 - u_a12 - 721 y_a12_proc_1 >= 1267
 c365: u_a7 - u_a12 - 1002 y_a12_proc_2 >= 1
 c366: u_a7 - u_a12 - 1098 y_a12_proc_0 >= 1267
 c367: u_a13 - u_a7 - 1256 y_a7_proc_1 >= -3800
 c368: u_a13 - u_a7 - 918 y_a7_proc_0 >= -3800
 c369: u_a7 - u_a13 - 1171 y_a13_proc_1 >= 1267
 c370: u_a7 - u_a13 - 742 y_a13_proc_0 >= 1267
 c371: u_a14 - u_a7 - 1256 y_a7_proc_1 >= -3800
 c372: u_a14 - u_a7 - 692 y_a7_proc_2 >= -5066
 c373: u_a14 - u_a7 - 918 y_a7_proc_0 >= -3800
 c374: u_a7 - u_a14 - 658 y_a14_proc_1 >= 1267
 c375: u_a7 - u_a14 - 1266 y_a14_proc_2 >= 1
 c376: u_a7 - u_a14 - 1196 y_a14_proc_0 >= 1267
 c377: u_a9 - u_a8 - 481 y_a8_proc_2 >= 999999999
 c378: u_a8 - u_a9 - 1072 y_a9_proc_2 >= -1000000000
 c379: u_a10 - u_a8 - 976 y_a8_proc_1 >= -2532
 c380: u_a8 - u_a10 - 1134 y_a10_proc_1 >= -1
 c381: u_a11 - u_a8 - 976 y_a8_proc_1 >= -2533
 c382: u_a8 - u_a11 - 952 y_a11_proc_1 >= 0
 c383: u_a12 - u_a8 - 976 y_a8_proc_1 >= -2532
 c384: u_a12 - u_a8 - 481 y_a8_proc_2 >= -2532
 c385: u_a12 - u_a8 - 623 y_a8_proc_0 >= -3798
 c386: u_a8 - u_a12 - 721 y_a12_proc_1 >= -1
 c387: u_a8 - u_a12 - 1002 y_a12_proc_2 >= -1
 c388: u_a8 - u_a12 - 1098 y_a12_proc_0 >= -1267
 c389: u_a13 - u_a8 - 976 y_a8_proc_1 >= -2532
 c390: u_a13 - u_a8 - 623 y_a8_proc_0 >= -3798
 c391: u_a8 - u_a13 - 1171 y_a13_proc_1 >= -1
 c392: u_a8 - u_a13 - 742 y_a13_proc_0 >= -1267
 c393: u_a14 - u_a8 - 976 y_a8_proc_1 >= -2533
 c394: u_a14 - u_a8 - 481 y_a8_proc_2 >= -2533
 c395: u_a14 - u_a8 - 623 y_a8_proc_0 >= -3799
 c396: u_a8 - u_a14 - 658 y_a14_proc_1 >= 0
 c397: u_a8 - u_a14 - 1266 y_a14_proc_2 >= 0
 c398: u_a8 - u_a14 - 1196 y_a14_proc_0 >= -1266
 c399: u_a12 - u_a9 - 1072 y_a9_proc_2 >= -1000001266
 c400: u_a9 - u_a12 - 1002 y_a12_proc_2 >= 999998733
 c401: u_a14 - u_a9 - 1072 y_a9_proc_2 >= -1000000001
 c402: u_a9 - u_a14 - 1266 y_a14_proc_2 >= 999997468
 c403: u_a11 - u_a10 - 1134 y_a10_proc_1 >= -1
 c404: u_a10 - u_a11 - 952 y_a11_proc_1 >= 0
 c405: u_a12 - u_a10 - 1134 y_a10_proc_1 >= -1
 c406: u_a10 - u_a12 - 721 y_a12_proc_1 >= 0
 c407: u_a13 - u_a10 - 1134 y_a10_proc_1 >= -1
 c408: u_a10 - u_a13 - 1171 y_a13_proc_1 >= 0
 c409: u_a14 - u_a10 - 1134 y_a10_proc_1 >= -1
 c410: u_a10 - u_a14 - 658 y_a14_proc_1 >= 0
 c411: u_a12 - u_a11 - 952 y_a11_proc_1 >= 0
 c412: u_a11 - u_a12 - 721 y_a12_proc_1 >= -1
 c413: u_a13 - u_a11 - 952 y_a11_proc_1 >= 0
 c414: u_a11 - u_a13 - 1171 y_a13_proc_1 >= -1
 c415: u_a14 - u_a11 - 952 y_a11_proc_1 >= -1
 c416: u_a11 - u_a14 - 658 y_a14_proc_1 >= 0
 c417: u_a13 - u_a12 - 721 y_a12_proc_1 >= 0
 c418: u_a13 - u_a12 - 1098 y_a12_proc_0 >= -2532
 c419: u_a12 - u_a13 - 1171 y_a13_proc_1 >= -1
 c420: u_a12 - u_a13 - 742 y_a13_proc_0 >= -2533
 c421: u_a14 - u_a12 - 721 y_a12_proc_1 >= -1
 c422: u_a14 - u_a12 - 1002 y_a12_proc_2 >= -2533
 c423: u_a14 - u_a12 - 1098 y_a12_proc_0 >= -2533
 c424: u_a12 - u_a14 - 658 y_a14_proc_1 >= 0
 c425: u_a12 - u_a14 - 1266 y_a14_proc_2 >= -2532
 c426: u_a12 - u_a14 - 1196 y_a14_proc_0 >= -2532
 c427: u_a14 - u_a13 - 1171 y_a13_proc_1 >= -1
 c428: u_a14 - u_a13 - 742 y_a13_proc_0 >= -2533
 c429: u_a13 - u_a14 - 658 y_a14_proc_1 >= 0
 c430: u_a13 - u_a14 - 1196 y_a14_proc_0 >= -2532
 c431: tau <= 0.001123595506
 c432: y_a0_proc_0 + y_a0_proc_1 + y_a0_proc_2 - tau = 0
 c433: y_a0_proc_0 <= 0
 c434: y_a0_proc_1 <= 1
 c435: y_a0_proc_2 <= 0
 c436: tau <= 0.001008064516
 c437: y_a1_proc_1 - tau = 0
 c438: y_a1_proc_1 <= 1
 c439: tau <= 0.001158748552
 c440: y_a2_proc_0 + y_a2_proc_1 - tau = 0
 c441: y_a2_proc_0 <= 1
 c442: y_a2_proc_1 <= 0
 c443: tau <= 0.001464128843
 c444: y_a3_proc_0 + y_a3_proc_1 + y_a3_proc_2 - tau = 0
 c445: y_a3_proc_0 <= 1
 c446: y_a3_proc_1 <= 0
 c447: y_a3_proc_2 <= 0
 c448: tau <= 0.001066098081
 c449: y_a4_proc_0 + y_a4_proc_1 + y_a4_proc_2 - tau = 0
 c450: y_a4_proc_0 <= 1
 c451: y_a4_proc_1 <= 0
 c452: y_a4_proc_2 <= 0
 c453: tau <= 0.001104972376
 c454: y_a5_proc_0 + y_a5_proc_1 - tau = 0
 c455: y_a5_proc_0 <= 0
 c456: y_a5_proc_1 <= 1
 c457: tau <= 0.002252252252
 c458: y_a6_proc_1 + y_a6_proc_2 - tau = 0
 c459: y_a6_proc_1 <= 0
 c460: y_a6_proc_2 <= 1
 c461: tau <= 0.001089324619
 c462: y_a7_proc_0 + y_a7_proc_1 + y_a7_proc_2 - tau = 0
 c463: y_a7_proc_0 <= 1
 c464: y_a7_proc_1 <= 0
 c465: y_a7_proc_2 <= 0
 c466: tau <= 0.002079002079
 c467: y_a8_proc_0 + y_a8_proc_1 + y_a8_proc_2 - tau = 0
 c468: y_a8_proc_0 <= 0
 c469: y_a8_proc_1 <= 0
 c470: y_a8_proc_2 <= 1
 c471: tau <= 0.000932835821
 c472: y_a9_proc_2 - tau = 0
 c473: y_a9_proc_2 <= 1
 c474: tau <= 0.000881834215
 c475: y_a10_proc_1 - tau = 0
 c476: y_a10_proc_1 <= 1
 c477: tau <= 0.001050420168
 c478: y_a11_proc_1 - tau = 0
 c479: y_a11_proc_1 <= 1
 c480: tau <= 0.001386962552
 c481: y_a12_proc_0 + y_a12_proc_1 + y_a12_proc_2 - tau = 0
 c482: y_a12_proc_0 <= 0
 c483: y_a12_proc_1 <= 1
 c484: y_a12_proc_2 <= 0
 c485: tau <= 0.000853970965
 c486: y_a13_proc_0 + y_a13_proc_1 - tau = 0
 c487: y_a13_proc_0 <= 0
 c488: y_a13_proc_1 <= 1
 c489: tau <= 0.001519756839
 c490: y_a14_proc_0 + y_a14_proc_1 + y_a14_proc_2 - tau = 0
 c491: y_a14_proc_0 <= 0
 c492: y_a14_proc_1 <= 1
 c493: y_a14_proc_2 <= 0
 c494: u_a1 - u_a0 - 884 y_a0_proc_0 - 890 y_a0_proc_1 - 1007 y_a0_proc_2 >= 0
 c495: u_a0 - u_a2 - 863 y_a2_proc_0 - 1187 y_a2_proc_1 >= 0
 c496: u_a3 - u_a1 - 992 y_a1_proc_1 >= 0
 c497: u_a4 - u_a1 - 992 y_a1_proc_1 >= -1
 c498: u_a1 - u_a5 - 1266 y_a5_proc_0 - 905 y_a5_proc_1 >= 0
 c499: u_a6 - u_a5 - 1266 y_a5_proc_0 - 905 y_a5_proc_1 >= 0
 c500: u_a7 - u_a4 - 938 y_a4_proc_0 - 756 y_a4_proc_1 - 906 y_a4_proc_2 >= 0
 c501: u_a8 - u_a6 - 1227 y_a6_proc_1 - 444 y_a6_proc_2 >= 0
 c502: u_a9 - u_a3 - 683 y_a3_proc_0 - 478 y_a3_proc_1 - 919 y_a3_proc_2 >= 0
 c503: u_a10 - u_a8 - 623 y_a8_proc_0 - 976 y_a8_proc_1 - 481 y_a8_proc_2 >= 0
 c504: u_a5 - u_a11 - 952 y_a11_proc_1 >= 0
 c505: u_a12 - u_a6 - 1227 y_a6_proc_1 - 444 y_a6_proc_2 >= 0
 c506: u_a13 - u_a12 - 1098 y_a12_proc_0 - 721 y_a12_proc_1 - 1002 y_a12_proc_2
        >= 0
 c507: u_a11 - u_a14 - 1196 y_a14_proc_0 - 658 y_a14_proc_1 - 1266 y_a14_proc_2
        >= 0
 c508: u_a2 - u_a13 - 742 y_a13_proc_0 - 1171 y_a13_proc_1 >= 0
 c509: u_a11 - u_a12 - 1098 y_a12_proc_0 - 721 y_a12_proc_1 - 1002 y_a12_proc_2
        >= -1
 c510: u_a11 - u_a8 - 623 y_a8_proc_0 - 976 y_a8_proc_1 - 481 y_a8_proc_2 >= -1
 c511: u_a13 - u_a5 - 1266 y_a5_proc_0 - 905 y_a5_proc_1 >= 0
 c512: u_a0 - u_a13 - 742 y_a13_proc_0 - 1171 y_a13_proc_1 >= 0
 c513: u_a1 - u_a7 - 918 y_a7_proc_0 - 1256 y_a7_proc_1 - 692 y_a7_proc_2 >= 0
 c514: u_a8 - u_a12 - 1098 y_a12_proc_0 - 721 y_a12_proc_1 - 1002 y_a12_proc_2
        >= 0
 c515: u_a3 - u_a6 - 1227 y_a6_proc_1 - 444 y_a6_proc_2 >= 0
 c516: u_a14 - u_a10 - 1134 y_a10_proc_1 >= -1
 c517: u_a1 - u_a0 - 890 y_a0_proc_1 >= 0
 c518: u_a0 - u_a1 - 992 y_a1_proc_1 >= -1
 c519: u_a2 - u_a0 - 890 y_a0_proc_1 >= -2532
 c520: u_a2 - u_a0 - 884 y_a0_proc_0 >= -2532
 c521: u_a0 - u_a2 - 1187 y_a2_proc_1 >= -1
 c522: u_a0 - u_a2 - 863 y_a2_proc_0 >= -1
 c523: u_a3 - u_a0 - 890 y_a0_proc_1 >= -2532
 c524: u_a3 - u_a0 - 1007 y_a0_proc_2 >= -3798
 c525: u_a3 - u_a0 - 884 y_a0_proc_0 >= -2532
 c526: u_a0 - u_a3 - 478 y_a3_proc_1 >= -1
 c527: u_a0 - u_a3 - 919 y_a3_proc_2 >= -1267
 c528: u_a0 - u_a3 - 683 y_a3_proc_0 >= -1
 c529: u_a4 - u_a0 - 890 y_a0_proc_1 >= -2533
 c530: u_a4 - u_a0 - 1007 y_a0_proc_2 >= -3799
 c531: u_a4 - u_a0 - 884 y_a0_proc_0 >= -2533
 c532: u_a0 - u_a4 - 756 y_a4_proc_1 >= 0
 c533: u_a0 - u_a4 - 906 y_a4_proc_2 >= -1266
 c534: u_a0 - u_a4 - 938 y_a4_proc_0 >= 0
 c535: u_a5 - u_a0 - 890 y_a0_proc_1 >= -1268
 c536: u_a5 - u_a0 - 884 y_a0_proc_0 >= -3800
 c537: u_a0 - u_a5 - 905 y_a5_proc_1 >= 1267
 c538: u_a0 - u_a5 - 1266 y_a5_proc_0 >= -1265
 c539: u_a6 - u_a0 - 890 y_a0_proc_1 >= -3800
 c540: u_a6 - u_a0 - 1007 y_a0_proc_2 >= -3800
 c541: u_a0 - u_a6 - 1227 y_a6_proc_1 >= 1267
 c542: u_a0 - u_a6 - 444 y_a6_proc_2 >= 1267
 c543: u_a7 - u_a0 - 890 y_a0_proc_1 >= -2532
 c544: u_a7 - u_a0 - 1007 y_a0_proc_2 >= -3798
 c545: u_a7 - u_a0 - 884 y_a0_proc_0 >= -2532
 c546: u_a0 - u_a7 - 1256 y_a7_proc_1 >= -1
 c547: u_a0 - u_a7 - 692 y_a7_proc_2 >= -1267
 c548: u_a0 - u_a7 - 918 y_a7_proc_0 >= -1
 c549: u_a8 - u_a0 - 890 y_a0_proc_1 >= -3800
 c550: u_a8 - u_a0 - 1007 y_a0_proc_2 >= -3800
 c551: u_a8 - u_a0 - 884 y_a0_proc_0 >= -5066
 c552: u_a0 - u_a8 - 976 y_a8_proc_1 >= 1267
 c553: u_a0 - u_a8 - 481 y_a8_proc_2 >= 1267
 c554: u_a0 - u_a8 - 623 y_a8_proc_0 >= 1
 c555: u_a9 - u_a0 - 1007 y_a0_proc_2 >= 999998732
 c556: u_a0 - u_a9 - 1072 y_a9_proc_2 >= -1000001265
 c557: u_a10 - u_a0 - 890 y_a0_proc_1 >= -1267
 c558: u_a0 - u_a10 - 1134 y_a10_proc_1 >= 1266
 c559: u_a11 - u_a0 - 890 y_a0_proc_1 >= -1268
 c560: u_a0 - u_a11 - 952 y_a11_proc_1 >= 1267
 c561: u_a12 - u_a0 - 890 y_a0_proc_1 >= -1268
 c562: u_a12 - u_a0 - 1007 y_a0_proc_2 >= -3800
 c563: u_a12 - u_a0 - 884 y_a0_proc_0 >= -3800
 c564: u_a0 - u_a12 - 721 y_a12_proc_1 >= 1267
 c565: u_a0 - u_a12 - 1002 y_a12_proc_2 >= -1265
 c566: u_a0 - u_a12 - 1098 y_a12_proc_0 >= -1265
 c567: u_a13 - u_a0 - 890 y_a0_proc_1 >= -1268
 c568: u_a13 - u_a0 - 884 y_a0_proc_0 >= -3800
 c569: u_a0 - u_a13 - 1171 y_a13_proc_1 >= 1267
 c570: u_a0 - u_a13 - 742 y_a13_proc_0 >= -1265
 c571: u_a14 - u_a0 - 890 y_a0_proc_1 >= -1268
 c572: u_a14 - u_a0 - 1007 y_a0_proc_2 >= -3800
 c573: u_a14 - u_a0 - 884 y_a0_proc_0 >= -3800
 c574: u_a0 - u_a14 - 658 y_a14_proc_1 >= 1267
 c575: u_a0 - u_a14 - 1266 y_a14_proc_2 >= -1265
 c576: u_a0 - u_a14 - 1196 y_a14_proc_0 >= -1265
 c577: u_a2 - u_a1 - 992 y_a1_proc_1 >= -2533
 c578: u_a1 - u_a2 - 1187 y_a2_proc_1 >= 0
 c579: u_a3 - u_a1 - 992 y_a1_proc_1 >= -2532
 c580: u_a1 - u_a3 - 478 y_a3_proc_1 >= -1
 c581: u_a4 - u_a1 - 992 y_a1_proc_1 >= -2533
 c582: u_a1 - u_a4 - 756 y_a4_proc_1 >= 0
 c583: u_a5 - u_a1 - 992 y_a1_proc_1 >= -1268
 c584: u_a1 - u_a5 - 905 y_a5_proc_1 >= 1267
 c585: u_a6 - u_a1 - 992 y_a1_proc_1 >= -3800
 c586: u_a1 - u_a6 - 1227 y_a6_proc_1 >= 1267
 c587: u_a7 - u_a1 - 992 y_a1_proc_1 >= -2532
 c588: u_a1 - u_a7 - 1256 y_a7_proc_1 >= -1
 c589: u_a8 - u_a1 - 992 y_a1_proc_1 >= -3800
 c590: u_a1 - u_a8 - 976 y_a8_proc_1 >= 1267
 c591: u_a10 - u_a1 - 992 y_a1_proc_1 >= -1268
 c592: u_a1 - u_a10 - 1134 y_a10_proc_1 >= 1267
 c593: u_a11 - u_a1 - 992 y_a1_proc_1 >= -1268
 c594: u_a1 - u_a11 - 952 y_a11_proc_1 >= 1267
 c595: u_a12 - u_a1 - 992 y_a1_proc_1 >= -1268
 c596: u_a1 - u_a12 - 721 y_a12_proc_1 >= 1267
 c597: u_a13 - u_a1 - 992 y_a1_proc_1 >= -1268
 c598: u_a1 - u_a13 - 1171 y_a13_proc_1 >= 1267
 c599: u_a14 - u_a1 - 992 y_a1_proc_1 >= -1268
 c600: u_a1 - u_a14 - 658 y_a14_proc_1 >= 1267
 c601: u_a3 - u_a2 - 1187 y_a2_proc_1 >= -2532
 c602: u_a3 - u_a2 - 863 y_a2_proc_0 >= 0
 c603: u_a2 - u_a3 - 478 y_a3_proc_1 >= -2533
 c604: u_a2 - u_a3 - 683 y_a3_proc_0 >= -1
 c605: u_a4 - u_a2 - 1187 y_a2_proc_1 >= -2533
 c606: u_a4 - u_a2 - 863 y_a2_proc_0 >= -1
 c607: u_a2 - u_a4 - 756 y_a4_proc_1 >= -2532
 c608: u_a2 - u_a4 - 938 y_a4_proc_0 >= 0
 c609: u_a5 - u_a2 - 1187 y_a2_proc_1 >= -3800
 c610: u_a5 - u_a2 - 863 y_a2_proc_0 >= -3800
 c611: u_a2 - u_a5 - 905 y_a5_proc_1 >= 1267
 c612: u_a2 - u_a5 - 1266 y_a5_proc_0 >= 1267
 c613: u_a6 - u_a2 - 1187 y_a2_proc_1 >= -6331
 c614: u_a2 - u_a6 - 1227 y_a6_proc_1 >= 1266
 c615: u_a7 - u_a2 - 1187 y_a2_proc_1 >= -2532
 c616: u_a7 - u_a2 - 863 y_a2_proc_0 >= 0
 c617: u_a2 - u_a7 - 1256 y_a7_proc_1 >= -2533
 c618: u_a2 - u_a7 - 918 y_a7_proc_0 >= -1
 c619: u_a8 - u_a2 - 1187 y_a2_proc_1 >= -5065
 c620: u_a8 - u_a2 - 863 y_a2_proc_0 >= -3799
 c621: u_a2 - u_a8 - 976 y_a8_proc_1 >= 0
 c622: u_a2 - u_a8 - 623 y_a8_proc_0 >= 1266
 c623: u_a10 - u_a2 - 1187 y_a2_proc_1 >= -3799
 c624: u_a2 - u_a10 - 1134 y_a10_proc_1 >= 1266
 c625: u_a11 - u_a2 - 1187 y_a2_proc_1 >= -3800
 c626: u_a2 - u_a11 - 952 y_a11_proc_1 >= 1267
 c627: u_a12 - u_a2 - 1187 y_a2_proc_1 >= -3799
 c628: u_a12 - u_a2 - 863 y_a2_proc_0 >= -3799
 c629: u_a2 - u_a12 - 721 y_a12_proc_1 >= 1266
 c630: u_a2 - u_a12 - 1098 y_a12_proc_0 >= 1266
 c631: u_a13 - u_a2 - 1187 y_a2_proc_1 >= -3799
 c632: u_a13 - u_a2 - 863 y_a2_proc_0 >= -3799
 c633: u_a2 - u_a13 - 1171 y_a13_proc_1 >= 1266
 c634: u_a2 - u_a13 - 742 y_a13_proc_0 >= 1266
 c635: u_a14 - u_a2 - 1187 y_a2_proc_1 >= -3800
 c636: u_a14 - u_a2 - 863 y_a2_proc_0 >= -3800
 c637: u_a2 - u_a14 - 658 y_a14_proc_1 >= 1267
 c638: u_a2 - u_a14 - 1196 y_a14_proc_0 >= 1267
 c639: u_a4 - u_a3 - 478 y_a3_proc_1 >= -2533
 c640: u_a4 - u_a3 - 919 y_a3_proc_2 >= -2533
 c641: u_a4 - u_a3 - 683 y_a3_proc_0 >= -1
 c642: u_a3 - u_a4 - 756 y_a4_proc_1 >= -2532
 c643: u_a3 - u_a4 - 906 y_a4_proc_2 >= -2532
 c644: u_a3 - u_a4 - 938 y_a4_proc_0 >= 0
 c645: u_a5 - u_a3 - 478 y_a3_proc_1 >= -3800
 c646: u_a5 - u_a3 - 683 y_a3_proc_0 >= -3800
 c647: u_a3 - u_a5 - 905 y_a5_proc_1 >= 1267
 c648: u_a3 - u_a5 - 1266 y_a5_proc_0 >= 1267
 c649: u_a6 - u_a3 - 478 y_a3_proc_1 >= -5066
 c650: u_a6 - u_a3 - 919 y_a3_proc_2 >= -3800
 c651: u_a3 - u_a6 - 1227 y_a6_proc_1 >= 1
 c652: u_a3 - u_a6 - 444 y_a6_proc_2 >= 1267
 c653: u_a7 - u_a3 - 478 y_a3_proc_1 >= -2533
 c654: u_a7 - u_a3 - 919 y_a3_proc_2 >= -2533
 c655: u_a7 - u_a3 - 683 y_a3_proc_0 >= -1
 c656: u_a3 - u_a7 - 1256 y_a7_proc_1 >= -2532
 c657: u_a3 - u_a7 - 692 y_a7_proc_2 >= -2532
 c658: u_a3 - u_a7 - 918 y_a7_proc_0 >= 0
 c659: u_a8 - u_a3 - 478 y_a3_proc_1 >= -5065
 c660: u_a8 - u_a3 - 919 y_a3_proc_2 >= -3799
 c661: u_a8 - u_a3 - 683 y_a3_proc_0 >= -3799
 c662: u_a3 - u_a8 - 976 y_a8_proc_1 >= 0
 c663: u_a3 - u_a8 - 481 y_a8_proc_2 >= 1266
 c664: u_a3 - u_a8 - 623 y_a8_proc_0 >= 1266
 c665: u_a9 - u_a3 - 919 y_a3_proc_2 >= 999998732
 c666: u_a3 - u_a9 - 1072 y_a9_proc_2 >= -1000001265
 c667: u_a10 - u_a3 - 478 y_a3_proc_1 >= -3799
 c668: u_a3 - u_a10 - 1134 y_a10_proc_1 >= 1266
 c669: u_a11 - u_a3 - 478 y_a3_proc_1 >= -3800
 c670: u_a3 - u_a11 - 952 y_a11_proc_1 >= 1267
 c671: u_a12 - u_a3 - 478 y_a3_proc_1 >= -3800
 c672: u_a12 - u_a3 - 919 y_a3_proc_2 >= -5066
 c673: u_a12 - u_a3 - 683 y_a3_proc_0 >= -3800
 c674: u_a3 - u_a12 - 721 y_a12_proc_1 >= 1267
 c675: u_a3 - u_a12 - 1002 y_a12_proc_2 >= 1
 c676: u_a3 - u_a12 - 1098 y_a12_proc_0 >= 1267
 c677: u_a13 - u_a3 - 478 y_a3_proc_1 >= -3800
 c678: u_a13 - u_a3 - 683 y_a3_proc_0 >= -3800
 c679: u_a3 - u_a13 - 1171 y_a13_proc_1 >= 1267
 c680: u_a3 - u_a13 - 742 y_a13_proc_0 >= 1267
 c681: u_a14 - u_a3 - 478 y_a3_proc_1 >= -3800
 c682: u_a14 - u_a3 - 919 y_a3_proc_2 >= -5066
 c683: u_a14 - u_a3 - 683 y_a3_proc_0 >= -3800
 c684: u_a3 - u_a14 - 658 y_a14_proc_1 >= 1267
 c685: u_a3 - u_a14 - 1266 y_a14_proc_2 >= 1
 c686: u_a3 - u_a14 - 1196 y_a14_proc_0 >= 1267
 c687: u_a5 - u_a4 - 756 y_a4_proc_1 >= -3799
 c688: u_a5 - u_a4 - 938 y_a4_proc_0 >= -3799
 c689: u_a4 - u_a5 - 905 y_a5_proc_1 >= 1266
 c690: u_a4 - u_a5 - 1266 y_a5_proc_0 >= 1266
 c691: u_a6 - u_a4 - 756 y_a4_proc_1 >= -5065
 c692: u_a6 - u_a4 - 906 y_a4_proc_2 >= -3799
 c693: u_a4 - u_a6 - 1227 y_a6_proc_1 >= 0
 c694: u_a4 - u_a6 - 444 y_a6_proc_2 >= 1266
 c695: u_a7 - u_a4 - 756 y_a4_proc_1 >= -2532
 c696: u_a7 - u_a4 - 906 y_a4_proc_2 >= -2532
 c697: u_a7 - u_a4 - 938 y_a4_proc_0 >= 0
 c698: u_a4 - u_a7 - 1256 y_a7_proc_1 >= -2533
 c699: u_a4 - u_a7 - 692 y_a7_proc_2 >= -2533
 c700: u_a4 - u_a7 - 918 y_a7_proc_0 >= -1
 c701: u_a8 - u_a4 - 756 y_a4_proc_1 >= -5065
 c702: u_a8 - u_a4 - 906 y_a4_proc_2 >= -3799
 c703: u_a8 - u_a4 - 938 y_a4_proc_0 >= -3799
 c704: u_a4 - u_a8 - 976 y_a8_proc_1 >= 0
 c705: u_a4 - u_a8 - 481 y_a8_proc_2 >= 1266
 c706: u_a4 - u_a8 - 623 y_a8_proc_0 >= 1266
 c707: u_a9 - u_a4 - 906 y_a4_proc_2 >= 999998733
 c708: u_a4 - u_a9 - 1072 y_a9_proc_2 >= -1000001266
 c709: u_a10 - u_a4 - 756 y_a4_proc_1 >= -3799
 c710: u_a4 - u_a10 - 1134 y_a10_proc_1 >= 1266
 c711: u_a11 - u_a4 - 756 y_a4_proc_1 >= -3799
 c712: u_a4 - u_a11 - 952 y_a11_proc_1 >= 1266
 c713: u_a12 - u_a4 - 756 y_a4_proc_1 >= -3799
 c714: u_a12 - u_a4 - 906 y_a4_proc_2 >= -5065
 c715: u_a12 - u_a4 - 938 y_a4_proc_0 >= -3799
 c716: u_a4 - u_a12 - 721 y_a12_proc_1 >= 1266
 c717: u_a4 - u_a12 - 1002 y_a12_proc_2 >= 0
 c718: u_a4 - u_a12 - 1098 y_a12_proc_0 >= 1266
 c719: u_a13 - u_a4 - 756 y_a4_proc_1 >= -3799
 c720: u_a13 - u_a4 - 938 y_a4_proc_0 >= -3799
 c721: u_a4 - u_a13 - 1171 y_a13_proc_1 >= 1266
 c722: u_a4 - u_a13 - 742 y_a13_proc_0 >= 1266
 c723: u_a14 - u_a4 - 756 y_a4_proc_1 >= -3800
 c724: u_a14 - u_a4 - 906 y_a4_proc_2 >= -5066
 c725: u_a14 - u_a4 - 938 y_a4_proc_0 >= -3800
 c726: u_a4 - u_a14 - 658 y_a14_proc_1 >= 1267
 c727: u_a4 - u_a14 - 1266 y_a14_proc_2 >= 1
 c728: u_a4 - u_a14 - 1196 y_a14_proc_0 >= 1267
 c729: u_a6 - u_a5 - 905 y_a5_proc_1 >= -2532
 c730: u_a5 - u_a6 - 1227 y_a6_proc_1 >= -1
 c731: u_a7 - u_a5 - 905 y_a5_proc_1 >= -1265
 c732: u_a7 - u_a5 - 1266 y_a5_proc_0 >= -1265
 c733: u_a5 - u_a7 - 1256 y_a7_proc_1 >= -1268
 c734: u_a5 - u_a7 - 918 y_a7_proc_0 >= -1268
 c735: u_a8 - u_a5 - 905 y_a5_proc_1 >= -2532
 c736: u_a8 - u_a5 - 1266 y_a5_proc_0 >= -3798
 c737: u_a5 - u_a8 - 976 y_a8_proc_1 >= -1
 c738: u_a5 - u_a8 - 623 y_a8_proc_0 >= -1267
 c739: u_a10 - u_a5 - 905 y_a5_proc_1 >= 0
 c740: u_a5 - u_a10 - 1134 y_a10_proc_1 >= -1
 c741: u_a11 - u_a5 - 905 y_a5_proc_1 >= -1
 c742: u_a5 - u_a11 - 952 y_a11_proc_1 >= 0
 c743: u_a12 - u_a5 - 905 y_a5_proc_1 >= 0
 c744: u_a12 - u_a5 - 1266 y_a5_proc_0 >= -2532
 c745: u_a5 - u_a12 - 721 y_a12_proc_1 >= -1
 c746: u_a5 - u_a12 - 1098 y_a12_proc_0 >= -2533
 c747: u_a13 - u_a5 - 905 y_a5_proc_1 >= 0
 c748: u_a13 - u_a5 - 1266 y_a5_proc_0 >= -2532
 c749: u_a5 - u_a13 - 1171 y_a13_proc_1 >= -1
 c750: u_a5 - u_a13 - 742 y_a13_proc_0 >= -2533
 c751: u_a14 - u_a5 - 905 y_a5_proc_1 >= -1
 c752: u_a14 - u_a5 - 1266 y_a5_proc_0 >= -2533
 c753: u_a5 - u_a14 - 658 y_a14_proc_1 >= 0
 c754: u_a5 - u_a14 - 1196 y_a14_proc_0 >= -2532
 c755: u_a7 - u_a6 - 1227 y_a6_proc_1 >= 1
 c756: u_a7 - u_a6 - 444 y_a6_proc_2 >= 1267
 c757: u_a6 - u_a7 - 1256 y_a7_proc_1 >= -5066
 c758: u_a6 - u_a7 - 692 y_a7_proc_2 >= -3800
 c759: u_a8 - u_a6 - 1227 y_a6_proc_1 >= -2532
 c760: u_a8 - u_a6 - 444 y_a6_proc_2 >= 0
 c761: u_a6 - u_a8 - 976 y_a8_proc_1 >= -2533
 c762: u_a6 - u_a8 - 481 y_a8_proc_2 >= -1
 c763: u_a9 - u_a6 - 444 y_a6_proc_2 >= 999999999
 c764: u_a6 - u_a9 - 1072 y_a9_proc_2 >= -1000000000
 c765: u_a10 - u_a6 - 1227 y_a6_proc_1 >= -2532
 c766: u_a6 - u_a10 - 1134 y_a10_proc_1 >= -1
 c767: u_a11 - u_a6 - 1227 y_a6_proc_1 >= -2533
 c768: u_a6 - u_a11 - 952 y_a11_proc_1 >= 0
 c769: u_a12 - u_a6 - 1227 y_a6_proc_1 >= -2532
 c770: u_a12 - u_a6 - 444 y_a6_proc_2 >= -2532
 c771: u_a6 - u_a12 - 721 y_a12_proc_1 >= -1
 c772: u_a6 - u_a12 - 1002 y_a12_proc_2 >= -1
 c773: u_a13 - u_a6 - 1227 y_a6_proc_1 >= -2532
 c774: u_a6 - u_a13 - 1171 y_a13_proc_1 >= -1
 c775: u_a14 - u_a6 - 1227 y_a6_proc_1 >= -2533
 c776: u_a14 - u_a6 - 444 y_a6_proc_2 >= -2533
 c777: u_a6 - u_a14 - 658 y_a14_proc_1 >= 0
 c778: u_a6 - u_a14 - 1266 y_a14_proc_2 >= 0
 c779: u_a8 - u_a7 - 1256 y_a7_proc_1 >= -5066
 c780: u_a8 - u_a7 - 692 y_a7_proc_2 >= -3800
 c781: u_a8 - u_a7 - 918 y_a7_proc_0 >= -3800
 c782: u_a7 - u_a8 - 976 y_a8_proc_1 >= 1
 c783: u_a7 - u_a8 - 481 y_a8_proc_2 >= 1267
 c784: u_a7 - u_a8 - 623 y_a8_proc_0 >= 1267
 c785: u_a9 - u_a7 - 692 y_a7_proc_2 >= 999996200
 c786: u_a7 - u_a9 - 1072 y_a9_proc_2 >= -999998733
 c787: u_a10 - u_a7 - 1256 y_a7_proc_1 >= -1267
 c788: u_a7 - u_a10 - 1134 y_a10_proc_1 >= -1266
 c789: u_a11 - u_a7 - 1256 y_a7_proc_1 >= -3800
 c790: u_a7 - u_a11 - 952 y_a11_proc_1 >= 1267
 c791: u_a12 - u_a7 - 1256 y_a7_proc_1 >= -3800
 c792: u_a12 - u_a7 - 692 y_a7_proc_2 >= -5066
 c793: u_a12 - u_a7 - 918 y_a7_proc_0 >= -3800
 c794: u_a7 - u_a12 - 721 y_a12_proc_1 >= 1267
 c795: u_a7 - u_a12 - 1002 y_a12_proc_2 >= 1
 c796: u_a7 - u_a12 - 1098 y_a12_proc_0 >= 1267
 c797: u_a13 - u_a7 - 1256 y_a7_proc_1 >= -3800
 c798: u_a13 - u_a7 - 918 y_a7_proc_0 >= -3800
 c799: u_a7 - u_a13 - 1171 y_a13_proc_1 >= 1267
 c800: u_a7 - u_a13 - 742 y_a13_proc_0 >= 1267
 c801: u_a14 - u_a7 - 1256 y_a7_proc_1 >= -3800
 c802: u_a14 - u_a7 - 692 y_a7_proc_2 >= -5066
 c803: u_a14 - u_a7 - 918 y_a7_proc_0 >= -3800
 c804: u_a7 - u_a14 - 658 y_a14_proc_1 >= 1267
 c805: u_a7 - u_a14 - 1266 y_a14_proc_2 >= 1
 c806: u_a7 - u_a14 - 1196 y_a14_proc_0 >= 1267
 c807: u_a9 - u_a8 - 481 y_a8_proc_2 >= 999999999
 c808: u_a8 - u_a9 - 1072 y_a9_proc_2 >= -1000000000
 c809: u_a10 - u_a8 - 976 y_a8_proc_1 >= -2532
 c810: u_a8 - u_a10 - 1134 y_a10_proc_1 >= -1
 c811: u_a11 - u_a8 - 976 y_a8_proc_1 >= -2533
 c812: u_a8 - u_a11 - 952 y_a11_proc_1 >= 0
 c813: u_a12 - u_a8 - 976 y_a8_proc_1 >= -2532
 c814: u_a12 - u_a8 - 481 y_a8_proc_2 >= -2532
 c815: u_a12 - u_a8 - 623 y_a8_proc_0 >= -3798
 c816: u_a8 - u_a12 - 721 y_a12_proc_1 >= -1
 c817: u_a8 - u_a12 - 1002 y_a12_proc_2 >= -1
 c818: u_a8 - u_a12 - 1098 y_a12_proc_0 >= -1267
 c819: u_a13 - u_a8 - 976 y_a8_proc_1 >= -2532
 c820: u_a13 - u_a8 - 623 y_a8_proc_0 >= -3798
 c821: u_a8 - u_a13 - 1171 y_a13_proc_1 >= -1
 c822: u_a8 - u_a13 - 742 y_a13_proc_0 >= -1267
 c823: u_a14 - u_a8 - 976 y_a8_proc_1 >= -2533
 c824: u_a14 - u_a8 - 481 y_a8_proc_2 >= -2533
 c825: u_a14 - u_a8 - 623 y_a8_proc_0 >= -3799
 c826: u_a8 - u_a14 - 658 y_a14_proc_1 >= 0
 c827: u_a8 - u_a14 - 1266 y_a14_proc_2 >= 0
 c828: u_a8 - u_a14 - 1196 y_a14_proc_0 >= -1266
 c829: u_a12 - u_a9 - 1072 y_a9_proc_2 >= -1000001266
 c830: u_a9 - u_a12 - 1002 y_a12_proc_2 >= 999998733
 c831: u_a14 - u_a9 - 1072 y_a9_proc_2 >= -1000000001
 c832: u_a9 - u_a14 - 1266 y_a14_proc_2 >= 999997468
 c833: u_a11 - u_a10 - 1134 y_a10_proc_1 >= -1
 c834: u_a10 - u_a11 - 952 y_a11_proc_1 >= 0
 c835: u_a12 - u_a10 - 1134 y_a10_proc_1 >= -1
 c836: u_a10 - u_a12 - 721 y_a12_proc_1 >= 0
 c837: u_a13 - u_a10 - 1134 y_a10_proc_1 >= -1
 c838: u_a10 - u_a13 - 1171 y_a13_proc_1 >= 0
 c839: u_a14 - u_a10 - 1134 y_a10_proc_1 >= -1
 c840: u_a10 - u_a14 - 658 y_a14_proc_1 >= 0
 c841: u_a12 - u_a11 - 952 y_a11_proc_1 >= 0
 c842: u_a11 - u_a12 - 721 y_a12_proc_1 >= -1
 c843: u_a13 - u_a11 - 952 y_a11_proc_1 >= 0
 c844: u_a11 - u_a13 - 1171 y_a13_proc_1 >= -1
 c845: u_a14 - u_a11 - 952 y_a11_proc_1 >= -1
 c846: u_a11 - u_a14 - 658 y_a14_proc_1 >= 0
 c847: u_a13 - u_a12 - 721 y_a12_proc_1 >= 0
 c848: u_a13 - u_a12 - 1098 y_a12_proc_0 >= -2532
 c849: u_a12 - u_a13 - 1171 y_a13_proc_1 >= -1
 c850: u_a12 - u_a13 - 742 y_a13_proc_0 >= -2533
 c851: u_a14 - u_a12 - 721 y_a12_proc_1 >= -1
 c852: u_a14 - u_a12 - 1002 y_a12_proc_2 >= -2533
 c853: u_a14 - u_a12 - 1098 y_a12_proc_0 >= -2533
 c854: u_a12 - u_a14 - 658 y_a14_proc_1 >= 0
 c855: u_a12 - u_a14 - 1266 y_a14_proc_2 >= -2532
 c856: u_a12 - u_a14 - 1196 y_a14_proc_0 >= -2532
 c857: u_a14 - u_a13 - 1171 y_a13_proc_1 >= -1
 c858: u_a14 - u_a13 - 742 y_a13_proc_0 >= -2533
 c859: u_a13 - u_a14 - 658 y_a14_proc_1 >= 0
 c860: u_a13 - u_a14 - 1196 y_a14_proc_0 >= -2532

Bounds
End
