benchmark/results/graph__15-1000-0.10-03_7/graph__15-1000-0.10-03_7_Quinton_Benders_primal_sub.txt
solution for: Quinton Benders_primal_sub
objective: 0
status: OPTIMAL_SOLUTION(2)
u_a0=1267.000
u_a1=1267.000
u_a2=1267.000
u_a3=1268.000
u_a4=1267.000
u_a7=1267.000
u_a9=1000000000.000
